#insiemi
set J := 1 2 3 4 5 6;
set D := x y z;
set R= uno due tre quattro cinque sei;

#parametri
param s :=
[1, *, *]: uno due tre quattro cinque sei:=
	x	  345	345	283	283		65		65	
	y	  283	65	345	65		345		283	
	z     65	283	65	345		283		345	
[2, *, *]: uno due tre quattro cinque sei:=
	x	  370	370	354	354		111		111		
	y	  354	111	111	370		370		354		
	z     111	354	370	111		354		370

[3, *, *]: uno due tre quattro cinque sei:=
	x	  292  292	167	167		109		109	
	y	  167  109	292	109		167		292
	z	  109	167	109	292		292		167

[4, *, *]: uno due tre quattro cinque sei:=
	x	  315	315	276	276		123		123	
	y	  276	123	315	123		315		276
	z	  123	276	123	315		276		315

[5, *, *]: uno due tre quattro cinque sei:=
	x	307	307 276	276	126	126
	y   276	126	307	126	307	276
	z	126	276	126 307	276	307 	

[6, *, *]: uno due tre quattro cinque sei:=
	x	  500	500	430	430		255		255
	y	  430	255  255 500	430		500	
	z	  255	430	500	255		500		430	

;
param pu :=
1 1
2 1 
3 1
4 1
5 1
6 1
;

param po :=
1 24 
2 5
3 8
4 9
5 20 
6 22
;

param S :=
x	612
y	492
z	384
;

param BigM:= 10000000000;